 vasp.5.3.3 18Dez12 (build Aug 26 2015 16:06:49) complex

 executed on             LinuxIFC date 2020.04.21  16:35:13

 INCAR:
 POTCAR:    PAW_PBE B 06Sep2000
 POTCAR:    PAW_PBE Al 04Jan2001
 POTCAR:    PAW_PBE B 06Sep2000
   VRHFIN =B: s2p1

   TITEL  = PAW_PBE B 06Sep2000
   POMASS =   10.811; ZVAL   =    3.000    mass and valenz
   ENMAX  =  318.614; ENMIN  =  238.960 eV

   TITEL  = PAW_PBE Al 04Jan2001
   POMASS =   26.981; ZVAL   =    3.000    mass and valenz
   ENMAX  =  240.300; ENMIN  =  180.225 eV

 Optimization of the real space projectors (new method)

 maximal supplied QI-value         = 22.11
 optimisation between [QCUT,QGAM] = [ 11.28, 22.77] = [ 35.61,145.23] Ry
 Optimized for a Real-space Cutoff    1.16 Angstroem

   l    n(q)    QCUT    max X(q) W(low)/X(q) W(high)/X(q)  e(spline)
   0      8    11.276    53.033    0.48E-03    0.56E-03    0.11E-06
   0      8    11.276    34.740    0.48E-03    0.55E-03    0.11E-06
   1      7    11.276    30.949    0.26E-03    0.19E-04    0.19E-06
   1      7    11.276    19.518    0.24E-03    0.14E-04    0.18E-06
 Optimization of the real space projectors (new method)

 maximal supplied QI-value         = 19.84
 optimisation between [QCUT,QGAM] = [ 11.31, 22.82] = [ 35.82,145.81] Ry
 Optimized for a Real-space Cutoff    1.07 Angstroem

   l    n(q)    QCUT    max X(q) W(low)/X(q) W(high)/X(q)  e(spline)
   0      7    11.310   176.870    0.43E-03    0.33E-03    0.78E-07
   0      7    11.310   105.762    0.41E-03    0.33E-03    0.76E-07
   1      7    11.310    55.370    0.40E-03    0.29E-03    0.65E-07
   1      7    11.310    20.208    0.38E-03    0.25E-03    0.60E-07
  PAW_PBE B 06Sep2000                   :
  PAW_PBE Al 04Jan2001                  :

 POSCAR: AdsorptionEnergy
  positions in direct lattice
 exchange correlation table for  LEXCH =        8
   RHO(1)=    0.500       N(1)  =     2000
   RHO(2)=  100.500       N(2)  =     4000

 ion  position               nearest neighbor table
   1  0.998  0.000  0.000-  23 1.65  19 1.69   4 1.69   2 1.71
   2  0.167  0.000  0.000-   3 1.71   1 1.71   5 1.71  20 1.71  19 1.71   4 1.71
   3  0.335  0.000  0.000-  21 1.65  20 1.69   5 1.69   2 1.71  41 2.62
   4  0.080  0.125  0.000-   1 1.69   6 1.69   2 1.71   7 1.71   5 1.76
   5  0.253  0.125  0.000-   3 1.69   8 1.69   7 1.71   2 1.71   4 1.76  41 2.60
   6  0.998  0.250  0.000-  28 1.65   9 1.69   4 1.69   7 1.71
   7  0.167  0.250  0.000-   8 1.71   6 1.71   5 1.71  10 1.71   9 1.71   4 1.71
   8  0.335  0.250  0.000-  26 1.65  10 1.69   5 1.69   7 1.71  41 2.62
   9  0.080  0.375  0.000-   6 1.69  11 1.69   7 1.71  12 1.71  10 1.76
  10  0.253  0.375  0.000-   8 1.69  13 1.69  12 1.71   7 1.71   9 1.76
  11  0.998  0.500  0.000-  33 1.65  14 1.69   9 1.69  12 1.71
  12  0.167  0.500  0.000-  13 1.71  11 1.71  10 1.71  15 1.71  14 1.71   9 1.71
  13  0.335  0.500  0.000-  31 1.65  15 1.69  10 1.69  12 1.71
  14  0.080  0.625  0.000-  11 1.69  16 1.69  12 1.71  17 1.71  15 1.76
  15  0.253  0.625  0.000-  13 1.69  18 1.69  17 1.71  12 1.71  14 1.76
  16  0.998  0.750  0.000-  38 1.65  19 1.69  14 1.69  17 1.71
  17  0.167  0.750  0.000-  18 1.71  16 1.71  15 1.71  20 1.71  19 1.71  14 1.71
  18  0.335  0.750  0.000-  36 1.65  20 1.69  15 1.69  17 1.71
  19  0.080  0.875  0.000-   1 1.69  16 1.69   2 1.71  17 1.71  20 1.76
  20  0.253  0.875  0.000-   3 1.69  18 1.69  17 1.71   2 1.71  19 1.76
  21  0.498  0.000  0.000-   3 1.65  24 1.69  39 1.69  22 1.71  41 2.62
  22  0.667  0.000  0.000-  23 1.71  21 1.71  25 1.71  40 1.71  39 1.71  24 1.71
  23  0.835  0.000  0.000-   1 1.65  25 1.69  40 1.69  22 1.71
  24  0.580  0.125  0.000-  21 1.69  26 1.69  22 1.71  27 1.71  25 1.76  41 2.60
  25  0.753  0.125  0.000-  23 1.69  28 1.69  27 1.71  22 1.71  24 1.76
  26  0.498  0.250  0.000-   8 1.65  24 1.69  29 1.69  27 1.71  41 2.62
  27  0.667  0.250  0.000-  28 1.71  26 1.71  25 1.71  30 1.71  29 1.71  24 1.71
  28  0.835  0.250  0.000-   6 1.65  25 1.69  30 1.69  27 1.71
  29  0.580  0.375  0.000-  26 1.69  31 1.69  27 1.71  32 1.71  30 1.76
  30  0.753  0.375  0.000-  28 1.69  33 1.69  32 1.71  27 1.71  29 1.76
  31  0.498  0.500  0.000-  13 1.65  29 1.69  34 1.69  32 1.71
  32  0.667  0.500  0.000-  33 1.71  31 1.71  30 1.71  35 1.71  34 1.71  29 1.71
  33  0.835  0.500  0.000-  11 1.65  30 1.69  35 1.69  32 1.71
  34  0.580  0.625  0.000-  31 1.69  36 1.69  32 1.71  37 1.71  35 1.76
  35  0.753  0.625  0.000-  33 1.69  38 1.69  37 1.71  32 1.71  34 1.76
  36  0.498  0.750  0.000-  18 1.65  34 1.69  39 1.69  37 1.71
  37  0.667  0.750  0.000-  38 1.71  36 1.71  35 1.71  40 1.71  39 1.71  34 1.71
  38  0.835  0.750  0.000-  16 1.65  35 1.69  40 1.69  37 1.71
  39  0.580  0.875  0.000-  21 1.69  36 1.69  22 1.71  37 1.71  40 1.76
  40  0.753  0.875  0.000-  23 1.69  38 1.69  37 1.71  22 1.71  39 1.76
  41  0.417  0.125  0.133-  24 2.60   5 2.60  21 2.62  26 2.62   8 2.62   3 2.62

  LATTYP: Found a simple orthorhombic cell.
 ALAT       =    10.1600000000
 B/A-ratio  =     1.1574803150
 C/A-ratio  =     1.4763779528

  Lattice vectors:

 A1 = (  10.1600000000,   0.0000000000,   0.0000000000)
 A2 = (   0.0000000000,  11.7600000000,   0.0000000000)
 A3 = (   0.0000000000,   0.0000000000,  15.0000000000)

Analysis of symmetry for initial positions (statically):
 Subroutine PRICEL returns:
 Original cell was already a primitive cell.

 Routine SETGRP: Setting up the symmetry group for a
 simple orthorhombic supercell.

 Subroutine GETGRP returns: Found  2 space group operations
 (whereof  1 operations were pure point group operations)
 out of a pool of  8 trial point group operations.

The static configuration has the point symmetry C_1 .
 The point group associated with its full space group is C_1h.

Analysis of symmetry for dynamics (positions and initial velocities):
 Subroutine PRICEL returns:
 Original cell was already a primitive cell.

 Routine SETGRP: Setting up the symmetry group for a
 simple orthorhombic supercell.

 Subroutine GETGRP returns: Found  2 space group operations
 (whereof  1 operations were pure point group operations)
 out of a pool of  8 trial point group operations.

The dynamic configuration has the point symmetry C_1 .
 The point group associated with its full space group is C_1h.

Analysis of magnetic symmetry:

 Subroutine MAGSYM returns: Found  2 space group operations
 (whereof  1 operations were pure point group operations)
 out of a pool of  2 trial space group operations
 (whereof  1 operations were pure point group operations)
 and found also     1 'primitive' translations

The magnetic configuration has the point symmetry C_1 .
 The point group associated with its full space group is C_1h.

 irot  :   1
 isymop:   1   0   0
           0   1   0
           0   0   1

 gtrans:     0.0000000     0.0000000     0.0000000

 ptrans:     0.0000000     0.0000000     0.0000000
 rotmap:
 (   1->   1)  (   2->   2)  (   3->   3)  (   4->   4)  (   5->   5)
 (   6->   6)  (   7->   7)  (   8->   8)  (   9->   9)  (  10->  10)
 (  11->  11)  (  12->  12)  (  13->  13)  (  14->  14)  (  15->  15)
 (  16->  16)  (  17->  17)  (  18->  18)  (  19->  19)  (  20->  20)
 (  21->  21)  (  22->  22)  (  23->  23)  (  24->  24)  (  25->  25)
 (  26->  26)  (  27->  27)  (  28->  28)  (  29->  29)  (  30->  30)
 (  31->  31)  (  32->  32)  (  33->  33)  (  34->  34)  (  35->  35)
 (  36->  36)  (  37->  37)  (  38->  38)  (  39->  39)  (  40->  40)
 (  41->  41)

 irot  :   2
 isymop:   1   0   0
           0  -1   0
           0   0   1

 gtrans:     0.0000000     0.2500000     0.0000000

 ptrans:     0.0000000     0.0000000     0.0000000
 rotmap:
 (   1->   6)  (   2->   7)  (   3->   8)  (   4->   4)  (   5->   5)
 (   6->   1)  (   7->   2)  (   8->   3)  (   9->  19)  (  10->  20)
 (  11->  16)  (  12->  17)  (  13->  18)  (  14->  14)  (  15->  15)
 (  16->  11)  (  17->  12)  (  18->  13)  (  19->   9)  (  20->  10)
 (  21->  26)  (  22->  27)  (  23->  28)  (  24->  24)  (  25->  25)
 (  26->  21)  (  27->  22)  (  28->  23)  (  29->  39)  (  30->  40)
 (  31->  36)  (  32->  37)  (  33->  38)  (  34->  34)  (  35->  35)
 (  36->  31)  (  37->  32)  (  38->  33)  (  39->  29)  (  40->  30)
 (  41->  41)

 KPOINTS: K-Points

Automatic generation of k-mesh.
Space group operators:
 irot       det(A)        alpha          n_x          n_y          n_z        tau_x        tau_y        tau_z
    1     1.000000     0.000000     1.000000     0.000000     0.000000     0.000000     0.000000     0.000000
    2    -1.000000   180.000000     0.000000     1.000000     0.000000     0.000000     0.250000     0.000000

 Subroutine IBZKPT returns following result:

 Found      6 irreducible k-points:

 Following reciprocal coordinates:
            Coordinates               Weight
  0.000000  0.000000  0.250000      2.000000
  0.333333  0.000000  0.250000      2.000000
 -0.333333  0.000000  0.250000      2.000000
  0.000000  0.333333  0.250000      4.000000
  0.333333  0.333333  0.250000      4.000000
 -0.333333  0.333333  0.250000      4.000000

 Following cartesian coordinates:
            Coordinates               Weight
  0.000000  0.000000  0.016667      2.000000
  0.032808  0.000000  0.016667      2.000000
 -0.032808  0.000000  0.016667      2.000000
  0.000000  0.028345  0.016667      4.000000
  0.032808  0.028345  0.016667      4.000000
 -0.032808  0.028345  0.016667      4.000000

 I would recommend the setting:
   dimension x,y,z NGX =    56 NGY =   64 NGZ =   82
 SYSTEM =  Beta12Borophene !The name of the system
 POSCAR =  AdsorptionEnergy

 Startparameter for this run:
   NWRITE =      2    write-flag & timer
   PREC   = normal    normal or accurate (medium, high low for compatibility)
   ISTART =      0    job   : 0-new  1-cont  2-samecut
   ICHARG =      2    charge: 1-file 2-atom 10-const
   ISPIN  =      2    spin polarized calculation?
   LNONCOLLINEAR =      F non collinear calculations
   LSORBIT =      F    spin-orbit coupling
   INIWAV =      1    electr: 0-lowe 1-rand  2-diag
   LASPH  =      F    aspherical Exc in radial PAW
   METAGGA=      F    non-selfconsistent MetaGGA calc.

 Electronic Relaxation 1
   ENCUT  =  500.0 eV  36.75 Ry    6.06 a.u.  18.52 21.44 27.35*2*pi/ulx,y,z
   ENINI  =  500.0     initial cutoff
   ENAUG  =  535.5 eV  augmentation charge cutoff
   NELM   =     60;   NELMIN=  2; NELMDL= -5     # of ELM steps
   EDIFF  = 0.1E-03   stopping-criterion for ELM
   LREAL  =      T    real-space projection
   NLSPLINE    = F    spline interpolate recip. space projectors
   LCOMPAT=      F    compatible to vasp.4.4
   GGA_COMPAT  = T    GGA compatible to vasp.4.4-vasp.4.6
   LMAXPAW     = -100 max onsite density
   LMAXMIX     =    2 max onsite mixed and CHGCAR
   VOSKOWN=      0    Vosko Wilk Nusair interpolation
   ROPT   =   -0.00050  -0.00050
 Ionic relaxation
   EDIFFG = -.1E-01   stopping-criterion for IOM
   NSW    =   1000    number of steps for IOM
   NBLOCK =      1;   KBLOCK =   1000    inner block; outer block
   IBRION =      2    ionic relax: 0-MD 1-quasi-New 2-CG
   NFREE  =      1    steps in history (QN), initial steepest desc. (CG)
   ISIF   =      2    stress and relaxation
[...]

----------------------------------------- Iteration   66(   2)  ---------------------------------------

 eigenvalue-minimisations  :  1518
 total energy-change (2. order) : 0.6664013E-05  (-0.4458845E-05)
 number of electron     123.0000006 magnetization       0.2824148
 augmentation part       -0.4242910 magnetization      -0.0054895

 DIPCOR: dipole corrections for dipol
 direction  3 min pos    89,
 dipolmoment           0.000000      0.000000     -0.230409 electrons x Angstroem
 Tr[quadrupol]     -2525.405050

 energy correction for charged system         0.000000 eV
 dipol+quadrupol energy correction           -0.002719 eV
 added-field ion interaction         -0.895197 eV  (added to PSCEN)

 Free energy of the ion-electron system (eV)
  alpha Z        PSCENC =        61.97717514
  Ewald energy   TEWEN  =      8229.93113074
  -1/2 Hartree   DENC   =    -10660.41262775
  -exchange  EXHF       =         0.00000000
  -V(xc)+E(xc)   XCENC  =       260.13312362
  PAW double counting   =     10963.20208461   -10900.49118337
  entropy T*S    EENTRO =         0.00316732
  eigenvalues    EBANDS =     -1108.76744955
  atomic energy  EATOM  =      2900.30308171
  free energy    TOTEN  =      -254.12149754 eV

  energy without entropy =     -254.12466486  energy(sigma->0) =     -254.12255331

 average (electrostatic) potential at core
  the test charge radii are     0.7672  1.0406
  (the norm of the test charge is              1.0000)
       1 -34.6083       2 -36.4081       3 -34.9941       4 -35.0721       5 -35.3525
       6 -34.6083       7 -36.4081       8 -34.9941       9 -34.9896      10 -35.0861
      11 -34.5982      12 -36.2777      13 -34.6447      14 -34.9026      15 -34.9488
      16 -34.5982      17 -36.2777      18 -34.6447      19 -34.9896      20 -35.0861
      21 -34.9955      22 -36.4093      23 -34.6111      24 -35.3576      25 -35.0774
      26 -34.9955      27 -36.4093      28 -34.6111      29 -35.0873      30 -34.9904
      31 -34.6453      32 -36.2783      33 -34.5994      34 -34.9494      35 -34.9052
      36 -34.6453      37 -36.2783      38 -34.5994      39 -35.0873      40 -34.9904
      41 -83.6341

 E-fermi :  -2.9181     XC(G=0):  -2.9618     alpha+bet : -2.6214

[...]

 spin component 2

[...]

 k-point   6 :      -0.3333    0.3333    0.2500
  band No.  band energies     occupation
      1     -16.9457      1.00000
      2     -16.7984      1.00000
      3     -16.6284      1.00000
      4     -16.5212      1.00000
      5     -15.7104      1.00000
      6     -15.5974      1.00000
      7     -15.0225      1.00000
      8     -14.9085      1.00000
      9     -14.0927      1.00000
     10     -13.4285      1.00000
     11     -13.2355      1.00000
     12     -13.1098      1.00000
     13     -13.0138      1.00000
     14     -12.8560      1.00000
     15     -12.7038      1.00000
     16     -12.2602      1.00000
     17     -12.2187      1.00000
     18     -11.9941      1.00000
     19     -11.9260      1.00000
     20     -11.8290      1.00000
     21     -10.7451      1.00000
     22     -10.0481      1.00000
     23      -9.6552      1.00000
     24      -9.6110      1.00000
     25      -9.2510      1.00000
     26      -9.0623      1.00000
     27      -8.9788      1.00000
     28      -8.8028      1.00000
     29      -8.5665      1.00000
     30      -8.5433      1.00000
     31      -8.5099      1.00000
     32      -8.3437      1.00000
     33      -8.0252      1.00000
     34      -7.9909      1.00000
     35      -7.7128      1.00000
     36      -7.4804      1.00000
     37      -7.4507      1.00000
     38      -7.1972      1.00000
     39      -7.1548      1.00000
     40      -7.0690      1.00000
     41      -6.4219      1.00000
     42      -6.1964      1.00000
     43      -5.9377      1.00000
     44      -5.7940      1.00000
     45      -5.5772      1.00000
     46      -5.4834      1.00000
     47      -5.3652      1.00000
     48      -5.3307      1.00000
     49      -5.1684      1.00000
     50      -5.0371      1.00000
     51      -4.9921      1.00000
     52      -4.8661      1.00000
     53      -4.8427      1.00000
     54      -4.4242      1.00000
     55      -4.3124      1.00000
     56      -4.1504      1.00000
     57      -3.9172      1.00000
     58      -3.8621      1.00000
     59      -3.6850      1.00000
     60      -3.3807      1.00000
[...]
     68      -0.6984     -0.00000
     69      -0.4240     -0.00000
     70      -0.1591      0.00000
     71       0.2611      0.00000
     72       0.5925      0.00000
     73       0.8242      0.00000
     74       1.0315      0.00000
     75       1.0935      0.00000
     76       1.2818      0.00000
     77       1.3407      0.00000
     78       1.4170      0.00000
     79       1.5271      0.00000
     80       1.6294      0.00000
     81       1.6795      0.00000
     82       1.7578      0.00000

[...]

 soft charge-density along one line, spin component           2
         0         1         2         3         4         5         6         7         8         9
 total charge-density along one line

------------------------ aborting loop because EDIFF is reached ----------------------------------------

  FORCE on cell =-STRESS in cart. coord.  units (eV):
  Direction    XX          YY          ZZ          XY          YZ          ZX
  Alpha Z    62.87509    62.87509    62.87509
  Ewald   11027.63635 11178.64194-13976.35394    -0.00000    -0.00000    -1.52239
  Hartree 10514.92825 10603.66145-10458.19353     0.00000    -0.00000    -0.42665
  E(xc)    -388.56117  -388.55107  -399.93109    -0.00000    -0.00000    -0.00533
  Local  -22470.35423-22706.53842 23362.52493     0.00000     0.00000     1.79007
  n-local   -22.58900   -16.50282   -12.53396    -0.00000     0.00042     0.01943
  augment     1.49805     1.56420     2.33131     0.00000    -0.00000    -0.00075
  Kinetic  1275.73756  1258.37230  1419.14541    -0.00000     0.00008     0.17941
  Fock        0.00000     0.00000     0.00000     0.00000     0.00000     0.00000
  Total       1.17090    -6.47733    -0.13578     0.00000     0.00000     0.03379
  in kB       1.04673    -5.79048    -0.12138     0.00000     0.00000     0.03021

 VOLUME and BASIS-vectors are now :
  energy-cutoff  :      500.00
  volume of cell :     1792.22
      direct lattice vectors                 reciprocal lattice vectors
    10.160000000  0.000000000  0.000000000     0.098425197  0.000000000  0.000000000
     0.000000000 11.760000000  0.000000000     0.000000000  0.085034014  0.000000000
     0.000000000  0.000000000 15.000000000     0.000000000  0.000000000  0.066666667

  length of vectors
    10.160000000 11.760000000 15.000000000     0.098425197  0.085034014  0.066666667

 FORCES acting on ions
    electron-ion (+dipol)            ewald-force                    non-local-force                 convergence-correction
   0.313E+02 0.174E+01 0.145E+02   -.362E+02 -.181E+01 -.145E+02   0.492E+01 0.649E-01 -.338E-01   -.115E-02 0.532E-03 0.285E-02
   0.123E+01 0.209E+01 0.105E+02   -.189E+01 -.238E+01 -.107E+02   0.655E+00 0.298E+00 0.281E+00   0.552E-03 0.295E-02 0.257E-02
   -.214E+02 0.126E+02 0.306E+01   0.248E+02 -.142E+02 -.435E+01   -.344E+01 0.163E+01 0.129E+01   0.115E-02 0.411E-02 0.137E-02
   0.335E+02 -.223E-14 0.308E+01   -.384E+02 -.222E-13 -.333E+01   0.483E+01 0.000E+00 0.252E+00   0.136E-02 -.196E-12 0.185E-02
   -.154E+02 0.108E-14 0.840E+01   0.181E+02 -.191E-13 -.929E+01   -.268E+01 0.000E+00 0.897E+00   0.908E-03 -.146E-12 0.416E-03
   0.313E+02 -.174E+01 0.145E+02   -.362E+02 0.181E+01 -.145E+02   0.492E+01 -.649E-01 -.338E-01   -.115E-02 -.532E-03 0.285E-02
   0.123E+01 -.209E+01 0.105E+02   -.189E+01 0.238E+01 -.107E+02   0.655E+00 -.298E+00 0.281E+00   0.552E-03 -.295E-02 0.257E-02
   -.214E+02 -.126E+02 0.306E+01   0.248E+02 0.142E+02 -.435E+01   -.344E+01 -.163E+01 0.129E+01   0.115E-02 -.411E-02 0.137E-02
   0.322E+02 -.463E+01 0.117E+02   -.366E+02 0.481E+01 -.119E+02   0.443E+01 -.176E+00 0.176E+00   -.880E-03 -.232E-03 0.334E-02
   -.273E+02 -.533E+01 -.622E+01   0.314E+02 0.578E+01 0.662E+01   -.415E+01 -.459E+00 -.404E+00   -.113E-02 0.585E-03 0.230E-02
   0.285E+02 -.714E+00 0.103E+02   -.334E+02 0.843E+00 -.104E+02   0.491E+01 -.131E+00 0.946E-01   -.385E-03 -.156E-03 0.900E-03
   0.874E+00 -.136E+01 0.138E+01   -.903E+00 0.155E+01 -.137E+01   0.278E-01 -.179E+00 -.132E-01   0.895E-03 -.105E-02 0.790E-03
   -.282E+02 -.257E+01 -.408E+01   0.331E+02 0.272E+01 0.407E+01   -.488E+01 -.152E+00 0.694E-02   -.284E-02 0.424E-03 -.668E-04
   0.303E+02 0.209E-13 0.104E+01   -.348E+02 -.501E-11 -.124E+01   0.443E+01 0.000E+00 0.204E+00   -.121E-02 0.272E-12 -.693E-03
   -.299E+02 -.192E-13 -.129E+01   0.343E+02 -.899E-12 0.153E+01   -.437E+01 0.000E+00 -.232E+00   0.321E-03 0.193E-12 -.111E-02
   0.285E+02 0.714E+00 0.103E+02   -.334E+02 -.843E+00 -.104E+02   0.491E+01 0.131E+00 0.946E-01   -.385E-03 0.156E-03 0.900E-03
   0.874E+00 0.136E+01 0.138E+01   -.903E+00 -.155E+01 -.137E+01   0.278E-01 0.179E+00 -.132E-01   0.895E-03 0.105E-02 0.790E-03
   -.282E+02 0.257E+01 -.408E+01   0.331E+02 -.272E+01 0.407E+01   -.488E+01 0.152E+00 0.694E-02   -.284E-02 -.424E-03 -.668E-04
   0.322E+02 0.463E+01 0.117E+02   -.366E+02 -.481E+01 -.119E+02   0.443E+01 0.176E+00 0.176E+00   -.880E-03 0.232E-03 0.334E-02
   -.273E+02 0.533E+01 -.622E+01   0.314E+02 -.578E+01 0.662E+01   -.415E+01 0.459E+00 -.404E+00   -.113E-02 -.585E-03 0.230E-02
   0.213E+02 0.126E+02 0.163E+01   -.247E+02 -.142E+02 -.294E+01   0.343E+01 0.163E+01 0.130E+01   -.145E-02 0.313E-02 0.122E-02
   -.125E+01 0.207E+01 0.103E+02   0.189E+01 -.236E+01 -.106E+02   -.652E+00 0.295E+00 0.302E+00   -.682E-03 0.288E-02 0.161E-02
   -.313E+02 0.172E+01 0.147E+02   0.362E+02 -.180E+01 -.147E+02   -.493E+01 0.704E-01 -.381E-01   0.150E-02 0.156E-02 0.216E-02
   0.152E+02 0.189E-13 0.555E+01   -.179E+02 0.266E-13 -.642E+01   0.267E+01 0.000E+00 0.875E+00   -.744E-03 -.176E-12 -.676E-04
   -.336E+02 0.537E-13 0.200E+01   0.384E+02 -.462E-13 -.227E+01   -.483E+01 0.000E+00 0.280E+00   -.216E-04 -.251E-13 0.421E-03
   0.213E+02 -.126E+02 0.163E+01   -.247E+02 0.142E+02 -.294E+01   0.343E+01 -.163E+01 0.130E+01   -.145E-02 -.313E-02 0.122E-02
   -.125E+01 -.207E+01 0.103E+02   0.189E+01 0.236E+01 -.106E+02   -.652E+00 -.295E+00 0.302E+00   -.682E-03 -.288E-02 0.161E-02
   -.313E+02 -.172E+01 0.147E+02   0.362E+02 0.180E+01 -.147E+02   -.493E+01 -.704E-01 -.381E-01   0.150E-02 -.156E-02 0.216E-02
   0.272E+02 -.531E+01 -.635E+01   -.314E+02 0.578E+01 0.676E+01   0.414E+01 -.463E+00 -.418E+00   0.366E-03 0.734E-03 0.169E-02
   -.321E+02 -.461E+01 0.128E+02   0.366E+02 0.478E+01 -.129E+02   -.443E+01 -.177E+00 0.175E+00   0.967E-03 0.653E-03 0.239E-02
   0.282E+02 -.257E+01 -.437E+01   -.331E+02 0.272E+01 0.435E+01   0.488E+01 -.151E+00 0.278E-01   0.328E-02 0.686E-03 -.852E-03
   -.881E+00 -.135E+01 0.149E+01   0.911E+00 0.154E+01 -.147E+01   -.307E-01 -.179E+00 -.122E-01   -.170E-02 -.107E-02 -.530E-03
   -.285E+02 -.728E+00 0.107E+02   0.334E+02 0.857E+00 -.108E+02   -.491E+01 -.130E+00 0.740E-01   0.816E-03 -.174E-02 0.229E-03
   0.299E+02 0.333E-13 -.205E+01   -.343E+02 -.176E-13 0.229E+01   0.438E+01 0.000E+00 -.229E+00   -.104E-02 0.305E-12 -.292E-02
   -.304E+02 0.805E-13 0.603E+00   0.348E+02 -.721E-14 -.812E+00   -.443E+01 0.000E+00 0.217E+00   -.100E-02 0.536E-12 -.223E-02
   0.282E+02 0.257E+01 -.437E+01   -.331E+02 -.272E+01 0.435E+01   0.488E+01 0.151E+00 0.278E-01   0.328E-02 -.686E-03 -.852E-03
   -.881E+00 0.135E+01 0.149E+01   0.911E+00 -.154E+01 -.147E+01   -.307E-01 0.179E+00 -.122E-01   -.170E-02 0.107E-02 -.530E-03
   -.285E+02 0.728E+00 0.107E+02   0.334E+02 -.857E+00 -.108E+02   -.491E+01 0.130E+00 0.740E-01   0.816E-03 0.174E-02 0.229E-03
   0.272E+02 0.531E+01 -.635E+01   -.314E+02 -.578E+01 0.676E+01   0.414E+01 0.463E+00 -.418E+00   0.366E-03 -.734E-03 0.169E-02
   -.321E+02 0.461E+01 0.128E+02   0.366E+02 -.478E+01 -.129E+02   -.443E+01 0.177E+00 0.175E+00   0.967E-03 -.653E-03 0.239E-02
   0.317E+00 -.113E-12 -.193E+03   -.285E+00 -.102E-13 0.189E+03   -.363E-01 0.000E+00 0.416E+01   -.251E-03 -.255E-12 -.116E-02
   0.440E-01 0.264E-12 -.121E+02   -.147E-12 -.599E-13 0.000E+00   -.599E-01 0.833E-16 0.120E+02   -.307E-02 -.295E-12 0.384E-01

 POSITION                                       TOTAL-FORCE (eV/Angst)
     10.13737      0.00121     -0.08167        -0.002084     -0.002865     -0.002337
      1.65277     -0.01298     -0.00971         0.003897      0.005503     -0.002619
      3.39373     -0.02071      0.11264        -0.001934     -0.001008      0.001632
      0.81311      1.47000     -0.00785         0.006380     -0.000000      0.000096
      2.55227      1.47000      0.07192        -0.001343     -0.000000      0.005885
     10.13737      2.93879     -0.08167        -0.002084      0.002865     -0.002337
      1.65277      2.95298     -0.00971         0.003897     -0.005503     -0.002619
      3.39373      2.96071      0.11264        -0.001934      0.001008      0.001632
      0.81796      4.41051     -0.05329        -0.004231     -0.000062     -0.006114
      2.55328      4.41448      0.07482         0.000233     -0.001278     -0.003255
     10.13833      5.88582     -0.06408         0.001882     -0.002059      0.001012
      1.69074      5.88666      0.01062         0.000403      0.005097      0.000094
      3.40540      5.88070      0.06876         0.000868     -0.001602      0.000038
      0.81844      7.35000     -0.00826         0.001140     -0.000000      0.001343
      2.56559      7.35000      0.03888         0.001231     -0.000000      0.001369
     10.13833      8.81418     -0.06408         0.001882      0.002059      0.001012
      1.69074      8.81334      0.01062         0.000403     -0.005097      0.000094
      3.40540      8.81930      0.06876         0.000868      0.001602      0.000038
      0.81796     10.28949     -0.05329        -0.004231      0.000062     -0.006114
      2.55328     10.28552      0.07482         0.000233      0.001278     -0.003255
      5.07413     -0.02085      0.12121         0.002574     -0.000229      0.001247
      6.81418     -0.01262     -0.00576        -0.002983      0.003445     -0.001193
      8.48965      0.00093     -0.08154         0.000356     -0.004417     -0.002584
      5.91610      1.47000      0.08853         0.001348     -0.000000      0.004952
      7.65464      1.47000     -0.00004        -0.002926     -0.000000      0.002891
      5.07413      2.96085      0.12121         0.002574      0.000229      0.001247
      6.81418      2.95262     -0.00576        -0.002983     -0.003445     -0.001193
      8.48965      2.93907     -0.08154         0.000356      0.004417     -0.002584
      5.91380      4.41450      0.07706        -0.001564      0.000023     -0.003231
      7.64872      4.41043     -0.05709         0.003224     -0.000147     -0.003586
      5.06129      5.88065      0.07081         0.001467     -0.000544      0.000556
      6.77579      5.88662      0.01098        -0.002565      0.005134      0.002497
      8.48811      5.88567     -0.06595         0.000844     -0.002990      0.000656
      5.90146      7.35000      0.04327        -0.000175     -0.000000      0.008496
      7.64820      7.35000     -0.00597        -0.001792     -0.000000      0.005459
      5.06129      8.81935      0.07081         0.001467      0.000544      0.000556
      6.77579      8.81338      0.01098        -0.002565     -0.005134      0.002497
      8.48811      8.81433     -0.06595         0.000844      0.002990      0.000656
      5.91380     10.28550      0.07706        -0.001564     -0.000023     -0.003231
      7.64872     10.28957     -0.05709         0.003224      0.000147     -0.003586
      4.22695      1.47000      1.52391        -0.004642     -0.000000      0.003884
    total drift:                               -0.018971     -0.000000     -0.004433

  FREE ENERGIE OF THE ION-ELECTRON SYSTEM (eV)
  free  energy   TOTEN  =      -254.12149754 eV

  energy  without entropy=     -254.12466486  energy(sigma->0) =     -254.12255331

 d Force = 0.4114546E-04[ 0.226E-04, 0.597E-04]  d Energy = 0.3683239E-04 0.431E-05
 d Force = 0.1882771E+00[ 0.188E+00, 0.188E+00]  d Ewald  = 0.1882771E+00-0.791E-08

 Conjugate gradient step on ions:
 trial-energy change:   -0.000037  1 .order   -0.000041   -0.000060   -0.000023
  (g-gl).g = 0.117E-03      g.g   = 0.108E-03  gl.gl    = 0.240E-03
 g(Force)  = 0.108E-03   g(Stress)= 0.000E+00 ortho     = 0.285E-05
 gamma     =   0.48920
 trial     =   0.54778
 opt step  =   0.88026  (harmonic =   0.88026) maximal distance =0.00144819
 next E    =  -254.121509   (d E  =  -0.00005)

 reached required accuracy - stopping structural energy minimisation