 vasp.5.3.3 18Dez12 (build Aug 26 2015 16:06:49) complex

 executed on             LinuxIFC date 2020.04.21  16:34:27

 INCAR:
 POTCAR:    PAW_PBE B 06Sep2000
 POTCAR:    PAW_PBE Si 05Jan2001
 POTCAR:    PAW_PBE B 06Sep2000
   VRHFIN =B: s2p1

   TITEL  = PAW_PBE B 06Sep2000
   POMASS =   10.811; ZVAL   =    3.000    mass and valenz
   ENMAX  =  318.614; ENMIN  =  238.960 eV

   TITEL  = PAW_PBE Si 05Jan2001
   POMASS =   28.085; ZVAL   =    4.000    mass and valenz
   ENMAX  =  245.345; ENMIN  =  184.009 eV

 Optimization of the real space projectors (new method)

 maximal supplied QI-value         = 22.11
 optimisation between [QCUT,QGAM] = [ 11.28, 22.77] = [ 35.61,145.23] Ry
 Optimized for a Real-space Cutoff    1.16 Angstroem

   l    n(q)    QCUT    max X(q) W(low)/X(q) W(high)/X(q)  e(spline)
   0      8    11.276    53.033    0.48E-03    0.56E-03    0.11E-06
   0      8    11.276    34.740    0.48E-03    0.55E-03    0.11E-06
   1      7    11.276    30.949    0.26E-03    0.19E-04    0.19E-06
   1      7    11.276    19.518    0.24E-03    0.14E-04    0.18E-06
 Optimization of the real space projectors (new method)

 maximal supplied QI-value         = 19.84
 optimisation between [QCUT,QGAM] = [ 11.31, 22.82] = [ 35.82,145.81] Ry
 Optimized for a Real-space Cutoff    1.16 Angstroem

   l    n(q)    QCUT    max X(q) W(low)/X(q) W(high)/X(q)  e(spline)
   0      8    11.310   159.560    0.27E-03    0.30E-03    0.39E-07
   0      8    11.310   115.863    0.27E-03    0.30E-03    0.38E-07
   1      7    11.310    88.339    0.28E-03    0.28E-03    0.77E-07
   1      7    11.310    48.592    0.27E-03    0.27E-03    0.74E-07
  PAW_PBE B 06Sep2000                   :
  PAW_PBE Si 05Jan2001                  :

 POSCAR: AdsorptionEnergy
  positions in direct lattice
 exchange correlation table for  LEXCH =        8
   RHO(1)=    0.500       N(1)  =     2000
   RHO(2)=  100.500       N(2)  =     4000

 ion  position               nearest neighbor table
   1  0.998  0.000  0.000-  23 1.65  19 1.69   4 1.69   2 1.71
   2  0.167  0.000  0.000-   3 1.71   1 1.71   5 1.71  20 1.71  19 1.71   4 1.71
   3  0.335  0.000  0.000-  21 1.65  20 1.69   5 1.69   2 1.71  41 2.62
   4  0.080  0.125  0.000-   1 1.69   6 1.69   2 1.71   7 1.71   5 1.76
   5  0.253  0.125  0.000-   3 1.69   8 1.69   7 1.71   2 1.71   4 1.76  41 2.60
   6  0.998  0.250  0.000-  28 1.65   9 1.69   4 1.69   7 1.71
   7  0.167  0.250  0.000-   8 1.71   6 1.71   5 1.71  10 1.71   9 1.71   4 1.71
   8  0.335  0.250  0.000-  26 1.65  10 1.69   5 1.69   7 1.71  41 2.62
   9  0.080  0.375  0.000-   6 1.69  11 1.69   7 1.71  12 1.71  10 1.76
  10  0.253  0.375  0.000-   8 1.69  13 1.69  12 1.71   7 1.71   9 1.76
  11  0.998  0.500  0.000-  33 1.65  14 1.69   9 1.69  12 1.71
  12  0.167  0.500  0.000-  13 1.71  11 1.71  10 1.71  15 1.71  14 1.71   9 1.71
  13  0.335  0.500  0.000-  31 1.65  15 1.69  10 1.69  12 1.71
  14  0.080  0.625  0.000-  11 1.69  16 1.69  12 1.71  17 1.71  15 1.76
  15  0.253  0.625  0.000-  13 1.69  18 1.69  17 1.71  12 1.71  14 1.76
  16  0.998  0.750  0.000-  38 1.65  19 1.69  14 1.69  17 1.71
  17  0.167  0.750  0.000-  18 1.71  16 1.71  15 1.71  20 1.71  19 1.71  14 1.71
  18  0.335  0.750  0.000-  36 1.65  20 1.69  15 1.69  17 1.71
  19  0.080  0.875  0.000-   1 1.69  16 1.69   2 1.71  17 1.71  20 1.76
  20  0.253  0.875  0.000-   3 1.69  18 1.69  17 1.71   2 1.71  19 1.76
  21  0.498  0.000  0.000-   3 1.65  24 1.69  39 1.69  22 1.71  41 2.62
  22  0.667  0.000  0.000-  23 1.71  21 1.71  25 1.71  40 1.71  39 1.71  24 1.71
  23  0.835  0.000  0.000-   1 1.65  25 1.69  40 1.69  22 1.71
  24  0.580  0.125  0.000-  21 1.69  26 1.69  22 1.71  27 1.71  25 1.76  41 2.60
  25  0.753  0.125  0.000-  23 1.69  28 1.69  27 1.71  22 1.71  24 1.76
  26  0.498  0.250  0.000-   8 1.65  24 1.69  29 1.69  27 1.71  41 2.62
  27  0.667  0.250  0.000-  28 1.71  26 1.71  25 1.71  30 1.71  29 1.71  24 1.71
  28  0.835  0.250  0.000-   6 1.65  25 1.69  30 1.69  27 1.71
  29  0.580  0.375  0.000-  26 1.69  31 1.69  27 1.71  32 1.71  30 1.76
  30  0.753  0.375  0.000-  28 1.69  33 1.69  32 1.71  27 1.71  29 1.76
  31  0.498  0.500  0.000-  13 1.65  29 1.69  34 1.69  32 1.71
  32  0.667  0.500  0.000-  33 1.71  31 1.71  30 1.71  35 1.71  34 1.71  29 1.71
  33  0.835  0.500  0.000-  11 1.65  30 1.69  35 1.69  32 1.71
  34  0.580  0.625  0.000-  31 1.69  36 1.69  32 1.71  37 1.71  35 1.76
  35  0.753  0.625  0.000-  33 1.69  38 1.69  37 1.71  32 1.71  34 1.76
  36  0.498  0.750  0.000-  18 1.65  34 1.69  39 1.69  37 1.71
  37  0.667  0.750  0.000-  38 1.71  36 1.71  35 1.71  40 1.71  39 1.71  34 1.71
  38  0.835  0.750  0.000-  16 1.65  35 1.69  40 1.69  37 1.71
  39  0.580  0.875  0.000-  21 1.69  36 1.69  22 1.71  37 1.71  40 1.76
  40  0.753  0.875  0.000-  23 1.69  38 1.69  37 1.71  22 1.71  39 1.76
  41  0.417  0.125  0.133-  24 2.60   5 2.60  21 2.62  26 2.62   8 2.62   3 2.62

  LATTYP: Found a simple orthorhombic cell.
 ALAT       =    10.1600000000
 B/A-ratio  =     1.1574803150
 C/A-ratio  =     1.4763779528

  Lattice vectors:

 A1 = (  10.1600000000,   0.0000000000,   0.0000000000)
 A2 = (   0.0000000000,  11.7600000000,   0.0000000000)
 A3 = (   0.0000000000,   0.0000000000,  15.0000000000)

Analysis of symmetry for initial positions (statically):
 Subroutine PRICEL returns:
 Original cell was already a primitive cell.

 Routine SETGRP: Setting up the symmetry group for a
 simple orthorhombic supercell.

 Subroutine GETGRP returns: Found  2 space group operations
 (whereof  1 operations were pure point group operations)
 out of a pool of  8 trial point group operations.

The static configuration has the point symmetry C_1 .
 The point group associated with its full space group is C_1h.

Analysis of symmetry for dynamics (positions and initial velocities):
 Subroutine PRICEL returns:
 Original cell was already a primitive cell.

 Routine SETGRP: Setting up the symmetry group for a
 simple orthorhombic supercell.

 Subroutine GETGRP returns: Found  2 space group operations
 (whereof  1 operations were pure point group operations)
 out of a pool of  8 trial point group operations.

The dynamic configuration has the point symmetry C_1 .
 The point group associated with its full space group is C_1h.

Analysis of magnetic symmetry:

 Subroutine MAGSYM returns: Found  2 space group operations
 (whereof  1 operations were pure point group operations)
 out of a pool of  2 trial space group operations
 (whereof  1 operations were pure point group operations)
 and found also     1 'primitive' translations

The magnetic configuration has the point symmetry C_1 .
 The point group associated with its full space group is C_1h.

 irot  :   1
 isymop:   1   0   0
           0   1   0
           0   0   1

 gtrans:     0.0000000     0.0000000     0.0000000

 ptrans:     0.0000000     0.0000000     0.0000000
 rotmap:
 (   1->   1)  (   2->   2)  (   3->   3)  (   4->   4)  (   5->   5)
 (   6->   6)  (   7->   7)  (   8->   8)  (   9->   9)  (  10->  10)
 (  11->  11)  (  12->  12)  (  13->  13)  (  14->  14)  (  15->  15)
 (  16->  16)  (  17->  17)  (  18->  18)  (  19->  19)  (  20->  20)
 (  21->  21)  (  22->  22)  (  23->  23)  (  24->  24)  (  25->  25)
 (  26->  26)  (  27->  27)  (  28->  28)  (  29->  29)  (  30->  30)
 (  31->  31)  (  32->  32)  (  33->  33)  (  34->  34)  (  35->  35)
 (  36->  36)  (  37->  37)  (  38->  38)  (  39->  39)  (  40->  40)
 (  41->  41)

 irot  :   2
 isymop:   1   0   0
           0  -1   0
           0   0   1

 gtrans:     0.0000000     0.2500000     0.0000000

 ptrans:     0.0000000     0.0000000     0.0000000
 rotmap:
 (   1->   6)  (   2->   7)  (   3->   8)  (   4->   4)  (   5->   5)
 (   6->   1)  (   7->   2)  (   8->   3)  (   9->  19)  (  10->  20)
 (  11->  16)  (  12->  17)  (  13->  18)  (  14->  14)  (  15->  15)
 (  16->  11)  (  17->  12)  (  18->  13)  (  19->   9)  (  20->  10)
 (  21->  26)  (  22->  27)  (  23->  28)  (  24->  24)  (  25->  25)
 (  26->  21)  (  27->  22)  (  28->  23)  (  29->  39)  (  30->  40)
 (  31->  36)  (  32->  37)  (  33->  38)  (  34->  34)  (  35->  35)
 (  36->  31)  (  37->  32)  (  38->  33)  (  39->  29)  (  40->  30)
 (  41->  41)

 KPOINTS: K-Points

Automatic generation of k-mesh.
Space group operators:
 irot       det(A)        alpha          n_x          n_y          n_z        tau_x        tau_y        tau_z
    1     1.000000     0.000000     1.000000     0.000000     0.000000     0.000000     0.000000     0.000000
    2    -1.000000   180.000000     0.000000     1.000000     0.000000     0.000000     0.250000     0.000000

 Subroutine IBZKPT returns following result:

 Found      6 irreducible k-points:

 Following reciprocal coordinates:
            Coordinates               Weight
  0.000000  0.000000  0.250000      2.000000
  0.333333  0.000000  0.250000      2.000000
 -0.333333  0.000000  0.250000      2.000000
  0.000000  0.333333  0.250000      4.000000
  0.333333  0.333333  0.250000      4.000000
 -0.333333  0.333333  0.250000      4.000000

 Following cartesian coordinates:
            Coordinates               Weight
  0.000000  0.000000  0.016667      2.000000
  0.032808  0.000000  0.016667      2.000000
 -0.032808  0.000000  0.016667      2.000000
  0.000000  0.028345  0.016667      4.000000
  0.032808  0.028345  0.016667      4.000000
 -0.032808  0.028345  0.016667      4.000000

 I would recommend the setting:
   dimension x,y,z NGX =    56 NGY =   64 NGZ =   82
 SYSTEM =  Beta12Borophene !The name of the system
 POSCAR =  AdsorptionEnergy

 Startparameter for this run:
   NWRITE =      2    write-flag & timer
   PREC   = normal    normal or accurate (medium, high low for compatibility)
   ISTART =      0    job   : 0-new  1-cont  2-samecut
   ICHARG =      2    charge: 1-file 2-atom 10-const
   ISPIN  =      2    spin polarized calculation?
   LNONCOLLINEAR =      F non collinear calculations
   LSORBIT =      F    spin-orbit coupling
   INIWAV =      1    electr: 0-lowe 1-rand  2-diag
   LASPH  =      F    aspherical Exc in radial PAW
   METAGGA=      F    non-selfconsistent MetaGGA calc.

 Electronic Relaxation 1
   ENCUT  =  500.0 eV  36.75 Ry    6.06 a.u.  18.52 21.44 27.35*2*pi/ulx,y,z
   ENINI  =  500.0     initial cutoff
   ENAUG  =  535.5 eV  augmentation charge cutoff
   NELM   =     60;   NELMIN=  2; NELMDL= -5     # of ELM steps
   EDIFF  = 0.1E-03   stopping-criterion for ELM
   LREAL  =      T    real-space projection
   NLSPLINE    = F    spline interpolate recip. space projectors
   LCOMPAT=      F    compatible to vasp.4.4
   GGA_COMPAT  = T    GGA compatible to vasp.4.4-vasp.4.6
   LMAXPAW     = -100 max onsite density
   LMAXMIX     =    2 max onsite mixed and CHGCAR
   VOSKOWN=      0    Vosko Wilk Nusair interpolation
   ROPT   =   -0.00050  -0.00050
 Ionic relaxation
   EDIFFG = -.1E-01   stopping-criterion for IOM
   NSW    =   1000    number of steps for IOM
   NBLOCK =      1;   KBLOCK =   1000    inner block; outer block
   IBRION =      2    ionic relax: 0-MD 1-quasi-New 2-CG
   NFREE  =      1    steps in history (QN), initial steepest desc. (CG)
   ISIF   =      2    stress and relaxation
[...]

----------------------------------------- Iteration   61(   2)  ---------------------------------------

 eigenvalue-minimisations  :  1074
 total energy-change (2. order) : 0.7085919E-06  (-0.9046365E-05)
 number of electron     124.0000007 magnetization       0.0000001
 augmentation part       -0.6501836 magnetization      -0.0000007

 DIPCOR: dipole corrections for dipol
 direction  3 min pos    88,
 dipolmoment           0.000000      0.000000     -0.020740 electrons x Angstroem
 Tr[quadrupol]     -2546.183261

 energy correction for charged system         0.000000 eV
 dipol+quadrupol energy correction           -0.000022 eV
 added-field ion interaction         -0.054670 eV  (added to PSCEN)

 Free energy of the ion-electron system (eV)
  alpha Z        PSCENC =        63.99131163
  Ewald energy   TEWEN  =      8317.20901280
  -1/2 Hartree   DENC   =    -10774.90550282
  -exchange  EXHF       =         0.00000000
  -V(xc)+E(xc)   XCENC  =       276.79511379
  PAW double counting   =     11032.84197987   -10984.46703482
  entropy T*S    EENTRO =         0.00265339
  eigenvalues    EBANDS =     -1137.05816352
  atomic energy  EATOM  =      2949.83092804
  free energy    TOTEN  =      -255.75970164 eV

  energy without entropy =     -255.76235503  energy(sigma->0) =     -255.76058611

 average (electrostatic) potential at core
  the test charge radii are     0.7672  0.9892
  (the norm of the test charge is              1.0000)
       1 -34.7695       2 -36.5496       3 -35.0208       4 -35.2755       5 -35.4220
       6 -34.7695       7 -36.5496       8 -35.0208       9 -35.1742      10 -35.3289
      11 -34.8674      12 -36.4745      13 -34.8262      14 -35.0742      15 -35.2037
      16 -34.8674      17 -36.4745      18 -34.8262      19 -35.1742      20 -35.3289
      21 -35.0208      22 -36.5499      23 -34.7710      24 -35.4233      25 -35.2762
      26 -35.0208      27 -36.5499      28 -34.7710      29 -35.3291      30 -35.1738
      31 -34.8264      32 -36.4747      33 -34.8679      34 -35.2037      35 -35.0758
      36 -34.8264      37 -36.4747      38 -34.8679      39 -35.3291      40 -35.1738
      41 -92.5222

 E-fermi :  -3.1390     XC(G=0):  -2.9750     alpha+bet : -2.6114

[...]

 spin component 2

[...]

 k-point   6 :      -0.3333    0.3333    0.2500
  band No.  band energies     occupation
      1     -17.1469      1.00000
      2     -16.9516      1.00000
      3     -16.8048      1.00000
      4     -16.6879      1.00000
      5     -15.8964      1.00000
      6     -15.7580      1.00000
      7     -15.2167      1.00000
      8     -15.0693      1.00000
      9     -14.5135      1.00000
     10     -13.6177      1.00000
     11     -13.4172      1.00000
     12     -13.2637      1.00000
     13     -13.1616      1.00000
     14     -13.0366      1.00000
     15     -12.8884      1.00000
     16     -12.4492      1.00000
     17     -12.4046      1.00000
     18     -12.1495      1.00000
     19     -12.0779      1.00000
     20     -12.0056      1.00000
     21     -11.2226      1.00000
     22     -10.2159      1.00000
     23      -9.8890      1.00000
     24      -9.7673      1.00000
     25      -9.4037      1.00000
     26      -9.2176      1.00000
     27      -9.1524      1.00000
     28      -8.9739      1.00000
     29      -8.7443      1.00000
     30      -8.6960      1.00000
     31      -8.6778      1.00000
     32      -8.5006      1.00000
     33      -8.3561      1.00000
     34      -8.2152      1.00000
     35      -7.9341      1.00000
     36      -7.6535      1.00000
     37      -7.6084      1.00000
     38      -7.3731      1.00000
     39      -7.3121      1.00000
     40      -7.2286      1.00000
     41      -6.7616      1.00000
     42      -6.4783      1.00000
     43      -6.1473      1.00000
     44      -6.0953      1.00000
     45      -5.8403      1.00000
     46      -5.7194      1.00000
     47      -5.5975      1.00000
     48      -5.4783      1.00000
     49      -5.3267      1.00000
     50      -5.2624      1.00000
     51      -5.1564      1.00000
     52      -5.0404      1.00000
     53      -5.0219      1.00000
     54      -4.6372      1.00000
     55      -4.5179      1.00000
     56      -4.3462      1.00000
     57      -4.1893      1.00000
     58      -4.0780      1.00000
     59      -3.8537      1.00000
     60      -3.7065      1.00000
[...]
     69      -0.6583     -0.00000
     70      -0.4750     -0.00000
     71      -0.0027      0.00000
     72       0.2914      0.00000
     73       0.4668      0.00000
     74       0.8048      0.00000
     75       1.0637      0.00000
     76       1.1423      0.00000
     77       1.2064      0.00000
     78       1.2523      0.00000
     79       1.4019      0.00000
     80       1.4921      0.00000
     81       1.5051      0.00000
     82       1.5943      0.00000
     83       1.6238      0.00000

[...]

 soft charge-density along one line, spin component           2
         0         1         2         3         4         5         6         7         8         9
 total charge-density along one line

------------------------ aborting loop because EDIFF is reached ----------------------------------------

  FORCE on cell =-STRESS in cart. coord.  units (eV):
  Direction    XX          YY          ZZ          XY          YZ          ZX
  Alpha Z    64.04600    64.04600    64.04600
  Ewald   11154.18755 11277.58928-14114.57475     0.00000     0.00000    -0.27972
  Hartree 10630.49592 10700.19875-10555.80057     0.00000    -0.00000    -0.08754
  E(xc)    -391.91543  -391.97296  -403.40072     0.00000     0.00000    -0.00059
  Local  -22733.71739-22924.95285 23568.78743     0.00000    -0.00000     0.34009
  n-local    -1.13662     3.73139     8.13441    -0.00000     0.00040     0.01115
  augment    -3.77525    -3.69639    -3.26310     0.00000     0.00000    -0.00010
  Kinetic  1279.22967  1266.34450  1435.89795     0.00000     0.00007     0.02730
  Fock        0.00000     0.00000     0.00000     0.00000     0.00000     0.00000
  Total      -2.58553    -8.71228    -0.17333     0.00000     0.00000     0.01059
  in kB      -2.31136    -7.78844    -0.15495     0.00000     0.00000     0.00946

 VOLUME and BASIS-vectors are now :
  energy-cutoff  :      500.00
  volume of cell :     1792.22
      direct lattice vectors                 reciprocal lattice vectors
    10.160000000  0.000000000  0.000000000     0.098425197  0.000000000  0.000000000
     0.000000000 11.760000000  0.000000000     0.000000000  0.085034014  0.000000000
     0.000000000  0.000000000 15.000000000     0.000000000  0.000000000  0.066666667

  length of vectors
    10.160000000 11.760000000 15.000000000     0.098425197  0.085034014  0.066666667

 FORCES acting on ions
    electron-ion (+dipol)            ewald-force                    non-local-force                 convergence-correction
   0.332E+02 0.262E+01 0.304E+01   -.381E+02 -.269E+01 -.294E+01   0.489E+01 0.723E-01 -.111E+00   0.937E-03 0.329E-02 0.470E-02
   0.574E+01 0.445E+01 0.137E+02   -.631E+01 -.466E+01 -.140E+02   0.562E+00 0.207E+00 0.218E+00   -.105E-02 0.188E-02 0.411E-02
   -.168E+02 0.200E+02 0.279E+02   0.205E+02 -.215E+02 -.296E+02   -.365E+01 0.150E+01 0.166E+01   -.898E-03 0.204E-02 0.289E-02
   0.355E+02 0.165E-15 -.929E+01   -.404E+02 -.266E-14 0.937E+01   0.492E+01 0.000E+00 -.901E-01   -.220E-02 -.543E-13 0.599E-02
   -.620E+01 0.245E-13 0.288E+02   0.901E+01 -.151E-13 -.303E+02   -.281E+01 0.000E+00 0.150E+01   0.779E-03 -.547E-13 0.557E-02
   0.332E+02 -.262E+01 0.304E+01   -.381E+02 0.269E+01 -.294E+01   0.489E+01 -.723E-01 -.111E+00   0.937E-03 -.329E-02 0.470E-02
   0.574E+01 -.445E+01 0.137E+02   -.631E+01 0.466E+01 -.140E+02   0.562E+00 -.207E+00 0.218E+00   -.105E-02 -.188E-02 0.411E-02
   -.168E+02 -.200E+02 0.279E+02   0.205E+02 0.215E+02 -.296E+02   -.365E+01 -.150E+01 0.166E+01   -.898E-03 -.204E-02 0.289E-02
   0.335E+02 -.642E+01 0.738E+01   -.380E+02 0.643E+01 -.736E+01   0.445E+01 -.154E-01 -.193E-01   -.224E-04 0.259E-02 -.127E-03
   -.257E+02 -.774E+01 -.358E+01   0.299E+02 0.814E+01 0.383E+01   -.423E+01 -.407E+00 -.247E+00   -.788E-03 0.150E-03 -.686E-03
   0.293E+02 -.734E+00 0.922E+01   -.341E+02 0.907E+00 -.927E+01   0.483E+01 -.176E+00 0.615E-01   0.399E-02 0.208E-02 -.413E-02
   0.192E+01 -.236E+01 0.609E+00   -.192E+01 0.249E+01 -.617E+00   0.460E-02 -.130E+00 0.183E-01   -.293E-02 0.247E-02 -.398E-02
   -.275E+02 -.423E+01 -.576E+01   0.324E+02 0.433E+01 0.575E+01   -.487E+01 -.100E+00 0.127E-01   -.837E-03 0.340E-02 -.187E-02
   0.303E+02 0.204E-13 0.221E+01   -.347E+02 0.281E-13 -.243E+01   0.447E+01 0.000E+00 0.241E+00   0.191E-05 0.603E-13 -.571E-02
   -.289E+02 0.333E-13 -.569E+01   0.333E+02 0.116E-13 0.596E+01   -.441E+01 0.000E+00 -.269E+00   0.368E-03 0.106E-12 -.343E-02
   0.293E+02 0.734E+00 0.922E+01   -.341E+02 -.907E+00 -.927E+01   0.483E+01 0.176E+00 0.615E-01   0.399E-02 -.208E-02 -.413E-02
   0.192E+01 0.236E+01 0.609E+00   -.192E+01 -.249E+01 -.617E+00   0.460E-02 0.130E+00 0.183E-01   -.293E-02 -.247E-02 -.398E-02
   -.275E+02 0.423E+01 -.576E+01   0.324E+02 -.433E+01 0.575E+01   -.487E+01 0.100E+00 0.127E-01   -.837E-03 -.340E-02 -.187E-02
   0.335E+02 0.642E+01 0.738E+01   -.380E+02 -.643E+01 -.736E+01   0.445E+01 0.154E-01 -.193E-01   -.224E-04 -.259E-02 -.127E-03
   -.257E+02 0.774E+01 -.358E+01   0.299E+02 -.814E+01 0.383E+01   -.423E+01 0.407E+00 -.247E+00   -.788E-03 -.150E-03 -.686E-03
   0.168E+02 0.200E+02 0.278E+02   -.204E+02 -.215E+02 -.295E+02   0.365E+01 0.151E+01 0.166E+01   0.852E-03 0.261E-02 0.260E-02
   -.573E+01 0.446E+01 0.137E+02   0.629E+01 -.466E+01 -.139E+02   -.565E+00 0.203E+00 0.214E+00   0.171E-02 0.282E-02 0.316E-02
   -.331E+02 0.262E+01 0.307E+01   0.380E+02 -.270E+01 -.297E+01   -.489E+01 0.761E-01 -.110E+00   -.147E-02 0.111E-02 0.425E-02
   0.620E+01 0.115E-12 0.289E+02   -.901E+01 0.481E-11 -.304E+02   0.281E+01 0.000E+00 0.151E+01   -.448E-03 -.408E-12 0.434E-02
   -.355E+02 0.684E-13 -.922E+01   0.404E+02 0.195E-13 0.930E+01   -.492E+01 0.000E+00 -.896E-01   -.133E-03 -.255E-12 0.514E-02
   0.168E+02 -.200E+02 0.278E+02   -.204E+02 0.215E+02 -.295E+02   0.365E+01 -.151E+01 0.166E+01   0.852E-03 -.261E-02 0.260E-02
   -.573E+01 -.446E+01 0.137E+02   0.629E+01 0.466E+01 -.139E+02   -.565E+00 -.203E+00 0.214E+00   0.171E-02 -.282E-02 0.316E-02
   -.331E+02 -.262E+01 0.307E+01   0.380E+02 0.270E+01 -.297E+01   -.489E+01 -.761E-01 -.110E+00   -.147E-02 -.111E-02 0.425E-02
   0.257E+02 -.773E+01 -.343E+01   -.299E+02 0.813E+01 0.368E+01   0.423E+01 -.401E+00 -.251E+00   -.715E-03 0.286E-02 -.824E-03
   -.335E+02 -.642E+01 0.786E+01   0.380E+02 0.644E+01 -.784E+01   -.445E+01 -.186E-01 -.190E-01   0.831E-03 -.259E-03 -.894E-03
   0.275E+02 -.421E+01 -.594E+01   -.324E+02 0.431E+01 0.591E+01   0.487E+01 -.103E+00 0.234E-01   0.257E-02 0.133E-02 -.197E-02
   -.194E+01 -.234E+01 0.345E+00   0.195E+01 0.247E+01 -.354E+00   -.600E-02 -.132E+00 0.175E-01   -.112E-02 0.215E-02 -.398E-02
   -.293E+02 -.752E+00 0.933E+01   0.341E+02 0.924E+00 -.938E+01   -.483E+01 -.175E+00 0.626E-01   -.164E-02 0.238E-02 -.443E-02
   0.289E+02 -.366E-13 -.646E+01   -.333E+02 0.161E-14 0.672E+01   0.440E+01 0.000E+00 -.257E+00   0.181E-03 -.208E-12 -.336E-02
   -.303E+02 0.654E-13 0.163E+01   0.348E+02 0.727E-14 -.187E+01   -.446E+01 0.000E+00 0.253E+00   -.461E-03 -.106E-12 -.551E-02
   0.275E+02 0.421E+01 -.594E+01   -.324E+02 -.431E+01 0.591E+01   0.487E+01 0.103E+00 0.234E-01   0.257E-02 -.133E-02 -.197E-02
   -.194E+01 0.234E+01 0.345E+00   0.195E+01 -.247E+01 -.354E+00   -.600E-02 0.132E+00 0.175E-01   -.112E-02 -.215E-02 -.398E-02
   -.293E+02 0.752E+00 0.933E+01   0.341E+02 -.924E+00 -.938E+01   -.483E+01 0.175E+00 0.626E-01   -.164E-02 -.238E-02 -.443E-02
   0.257E+02 0.773E+01 -.343E+01   -.299E+02 -.813E+01 0.368E+01   0.423E+01 0.401E+00 -.251E+00   -.715E-03 -.286E-02 -.824E-03
   -.335E+02 0.642E+01 0.786E+01   0.380E+02 -.644E+01 -.784E+01   -.445E+01 0.186E-01 -.190E-01   0.831E-03 0.259E-03 -.894E-03
   -.162E-01 0.298E-12 -.242E+03   0.162E-01 -.115E-13 0.251E+03   0.317E-02 0.000E+00 -.822E+01   -.932E-04 -.148E-12 -.724E-03
   -.241E-02 -.644E-13 -.933E+00   0.599E-13 -.265E-14 -.568E-13   0.212E-01 0.173E-15 0.946E+00   -.318E-02 -.534E-13 -.535E-04

 POSITION                                       TOTAL-FORCE (eV/Angst)
     -0.01766      0.00315      0.00819         0.001077      0.000186     -0.005226
      1.66516     -0.00729     -0.02268        -0.005309      0.002051     -0.004337
      3.40602     -0.00195     -0.03750         0.004136     -0.000451     -0.000054
      0.81616      1.47000      0.06532         0.001229      0.000000     -0.006105
      2.58119      1.47000     -0.03868        -0.001757      0.000000     -0.007993
     -0.01766      2.93685      0.00819         0.001077     -0.000186     -0.005226
      1.66516      2.94729     -0.02268        -0.005309     -0.002051     -0.004337
      3.40602      2.94195     -0.03750         0.004136      0.000451     -0.000054
      0.82044      4.40456     -0.01321         0.001189      0.002323      0.000691
      2.56293      4.41001      0.05490        -0.002473     -0.000286      0.005538
     10.14120      5.88675     -0.03422         0.003494     -0.001146      0.000843
      1.69376      5.88358      0.03076        -0.000114      0.003435      0.005665
      3.40621      5.87874      0.08566         0.001969      0.000976     -0.002501
      0.81818      7.35000      0.00896        -0.001219      0.000000      0.008544
      2.56886      7.35000      0.07526         0.000176      0.000000      0.000690
     10.14120      8.81325     -0.03422         0.003494      0.001146      0.000843
      1.69376      8.81642      0.03076        -0.000114     -0.003435      0.005665
      3.40621      8.82126      0.08566         0.001969     -0.000976     -0.002501
      0.82044     10.29544     -0.01321         0.001189     -0.002323      0.000691
      2.56293     10.28999      0.05490        -0.002473      0.000286      0.005538
      5.06040     -0.00182     -0.03712        -0.001417     -0.000007     -0.001730
      6.80193     -0.00685     -0.02266         0.000258     -0.003356     -0.002601
      8.48506      0.00312      0.00784         0.002406      0.000970     -0.004215
      5.88554      1.47000     -0.03905         0.000551      0.000000     -0.003764
      7.65098      1.47000      0.06481        -0.000919      0.000000     -0.004483
      5.06040      2.94182     -0.03712        -0.001417      0.000007     -0.001730
      6.80193      2.94685     -0.02266         0.000258      0.003356     -0.002601
      8.48506      2.93688      0.00784         0.002406     -0.000970     -0.004215
      5.90395      4.40969      0.05447         0.002355      0.001106      0.005085
      7.64618      4.40425     -0.01521        -0.002840      0.001031      0.001613
      5.06047      5.87862      0.08706        -0.001761      0.000955     -0.003126
      6.77251      5.88355      0.03278        -0.002073      0.001188      0.004155
      8.48496      5.88642     -0.03425        -0.001355     -0.001019      0.002932
      5.89786      7.35000      0.07997        -0.002236      0.000000      0.000884
      7.64827      7.35000      0.01259         0.002406      0.000000      0.006926
      5.06047      8.82138      0.08706        -0.001761     -0.000955     -0.003126
      6.77251      8.81645      0.03278        -0.002073     -0.001188      0.004155
      8.48496      8.81358     -0.03425        -0.001355      0.001019      0.002932
      5.90395     10.29031      0.05447         0.002355     -0.001106      0.005085
      7.64618     10.29575     -0.01521        -0.002840     -0.001031      0.001613
      4.23314      1.47000      1.48114         0.002682      0.000000     -0.000164
    total drift:                                0.015643     -0.000000      0.012734

  FREE ENERGIE OF THE ION-ELECTRON SYSTEM (eV)
  free  energy   TOTEN  =      -255.75970164 eV

  energy  without entropy=     -255.76235503  energy(sigma->0) =     -255.76058611

 d Force = 0.5509943E-04[ 0.379E-04, 0.723E-04]  d Energy = 0.5473176E-04 0.368E-06
 d Force = 0.1229268E+00[ 0.123E+00, 0.123E+00]  d Ewald  = 0.1229268E+00 0.520E-08

 Conjugate gradient step on ions:
 trial-energy change:   -0.000055  1 .order   -0.000055   -0.000072   -0.000038
  (g-gl).g = 0.944E-04      g.g   = 0.114E-03  gl.gl    = 0.293E-03
 g(Force)  = 0.114E-03   g(Stress)= 0.000E+00 ortho     = 0.141E-04
 gamma     =   0.32267
 trial     =   0.61069
 opt step  =   1.28076  (harmonic =   1.28076) maximal distance =0.00083645
 next E    =  -255.759723   (d E  =  -0.00008)

 reached required accuracy - stopping structural energy minimisation